NAME: map8_480
TYPE: TSP
COMMENT: autogenerated using a wonderful map creator
DIMENSION: 600
EDGE_WEIGHT_TYPE: EUC_2D
NODE_COORD_SECTION
1 1.0 5.0
2 1.0 4.0
3 4.0 5.0
4 4.0 4.0
5 7.0 5.0
6 7.0 4.0
7 10.0 5.0
8 10.0 4.0
9 13.0 5.0
10 13.0 4.0
11 16.0 5.0
12 16.0 4.0
13 19.0 5.0
14 19.0 4.0
15 22.0 5.0
16 22.0 4.0
17 25.0 5.0
18 25.0 4.0
19 28.0 5.0
20 28.0 4.0
21 31.0 5.0
22 31.0 4.0
23 34.0 5.0
24 34.0 4.0
25 37.0 5.0
26 37.0 4.0
27 40.0 5.0
28 40.0 4.0
29 43.0 5.0
30 43.0 4.0
31 1.0 95.0
32 1.0 96.0
33 4.0 95.0
34 4.0 96.0
35 7.0 95.0
36 7.0 96.0
37 10.0 95.0
38 10.0 96.0
39 13.0 95.0
40 13.0 96.0
41 16.0 95.0
42 16.0 96.0
43 19.0 95.0
44 19.0 96.0
45 22.0 95.0
46 22.0 96.0
47 25.0 95.0
48 25.0 96.0
49 28.0 95.0
50 28.0 96.0
51 31.0 95.0
52 31.0 96.0
53 34.0 95.0
54 34.0 96.0
55 37.0 95.0
56 37.0 96.0
57 40.0 95.0
58 40.0 96.0
59 43.0 95.0
60 43.0 96.0
61 1.0 3.0
62 4.0 97.0
63 7.0 3.0
64 10.0 97.0
65 13.0 3.0
66 16.0 97.0
67 19.0 3.0
68 22.0 97.0
69 25.0 3.0
70 28.0 97.0
71 31.0 3.0
72 34.0 97.0
73 37.0 3.0
74 40.0 97.0
75 43.0 3.0
76 1.0 2.0
77 4.0 98.0
78 7.0 2.0
79 10.0 98.0
80 13.0 2.0
81 16.0 98.0
82 19.0 2.0
83 22.0 98.0
84 25.0 2.0
85 28.0 98.0
86 31.0 2.0
87 34.0 98.0
88 37.0 2.0
89 40.0 98.0
90 43.0 2.0
91 1.0 97.0
92 4.0 3.0
93 7.0 97.0
94 10.0 3.0
95 13.0 97.0
96 16.0 3.0
97 19.0 97.0
98 22.0 3.0
99 25.0 97.0
100 28.0 3.0
101 31.0 97.0
102 34.0 3.0
103 37.0 97.0
104 40.0 3.0
105 43.0 97.0
106 1.0 98.0
107 4.0 2.0
108 7.0 98.0
109 10.0 2.0
110 13.0 98.0
111 16.0 2.0
112 19.0 98.0
113 22.0 2.0
114 25.0 98.0
115 28.0 2.0
116 31.0 98.0
117 34.0 2.0
118 37.0 98.0
119 40.0 2.0
120 43.0 98.0
121 2.0 95.0
122 2.0 96.0
123 5.0 95.0
124 5.0 96.0
125 8.0 95.0
126 8.0 96.0
127 11.0 95.0
128 11.0 96.0
129 14.0 95.0
130 14.0 96.0
131 17.0 95.0
132 17.0 96.0
133 20.0 95.0
134 20.0 96.0
135 23.0 95.0
136 23.0 96.0
137 26.0 95.0
138 26.0 96.0
139 29.0 95.0
140 29.0 96.0
141 32.0 95.0
142 32.0 96.0
143 35.0 95.0
144 35.0 96.0
145 38.0 95.0
146 38.0 96.0
147 41.0 95.0
148 41.0 96.0
149 44.0 95.0
150 44.0 96.0
151 2.0 5.0
152 2.0 4.0
153 5.0 5.0
154 5.0 4.0
155 8.0 5.0
156 8.0 4.0
157 11.0 5.0
158 11.0 4.0
159 14.0 5.0
160 14.0 4.0
161 17.0 5.0
162 17.0 4.0
163 20.0 5.0
164 20.0 4.0
165 23.0 5.0
166 23.0 4.0
167 26.0 5.0
168 26.0 4.0
169 29.0 5.0
170 29.0 4.0
171 32.0 5.0
172 32.0 4.0
173 35.0 5.0
174 35.0 4.0
175 38.0 5.0
176 38.0 4.0
177 41.0 5.0
178 41.0 4.0
179 44.0 5.0
180 44.0 4.0
181 2.0 97.0
182 5.0 3.0
183 8.0 97.0
184 11.0 3.0
185 14.0 97.0
186 17.0 3.0
187 20.0 97.0
188 23.0 3.0
189 26.0 97.0
190 29.0 3.0
191 32.0 97.0
192 35.0 3.0
193 38.0 97.0
194 41.0 3.0
195 44.0 97.0
196 2.0 98.0
197 5.0 2.0
198 8.0 98.0
199 11.0 2.0
200 14.0 98.0
201 17.0 2.0
202 20.0 98.0
203 23.0 2.0
204 26.0 98.0
205 29.0 2.0
206 32.0 98.0
207 35.0 2.0
208 38.0 98.0
209 41.0 2.0
210 44.0 98.0
211 2.0 3.0
212 5.0 97.0
213 8.0 3.0
214 11.0 97.0
215 14.0 3.0
216 17.0 97.0
217 20.0 3.0
218 23.0 97.0
219 26.0 3.0
220 29.0 97.0
221 32.0 3.0
222 35.0 97.0
223 38.0 3.0
224 41.0 97.0
225 44.0 3.0
226 2.0 2.0
227 5.0 98.0
228 8.0 2.0
229 11.0 98.0
230 14.0 2.0
231 17.0 98.0
232 20.0 2.0
233 23.0 98.0
234 26.0 2.0
235 29.0 98.0
236 32.0 2.0
237 35.0 98.0
238 38.0 2.0
239 41.0 98.0
240 44.0 2.0
241 7.0 17.0
242 7.0 35.0
243 40.0 41.0
244 19.0 18.0
245 28.0 85.0
246 29.0 50.0
247 40.0 59.0
248 25.0 25.0
249 25.0 43.0
250 37.0 8.0
251 10.0 54.0
252 22.0 19.0
253 31.0 86.0
254 37.0 17.0
255 22.0 46.0
256 1.0 72.0
257 24.0 83.0
258 35.0 83.0
259 16.0 79.0
260 13.0 92.0
261 7.0 21.0
262 7.0 30.0
263 40.0 27.0
264 28.0 89.0
265 6.0 61.0
266 40.0 63.0
267 25.0 20.0
268 10.0 31.0
269 25.0 29.0
270 10.0 40.0
271 31.0 72.0
272 25.0 38.0
273 22.0 14.0
274 37.0 12.0
275 37.0 21.0
276 22.0 32.0
277 14.0 28.0
278 3.0 28.0
279 13.0 60.0
280 16.0 56.0
281 16.0 65.0
282 1.0 76.0
283 43.0 91.0
284 28.0 48.0
285 36.0 61.0
286 40.0 22.0
287 25.0 33.0
288 22.0 9.0
289 25.0 42.0
290 43.0 41.0
291 4.0 77.0
292 13.0 55.0
293 43.0 68.0
294 4.0 86.0
295 1.0 62.0
296 16.0 60.0
297 13.0 73.0
298 16.0 87.0
299 29.0 17.0
300 28.0 61.0
301 40.0 35.0
302 10.0 12.0
303 10.0 21.0
304 19.0 88.0
305 25.0 19.0
306 25.0 28.0
307 31.0 62.0
308 22.0 13.0
309 31.0 80.0
310 1.0 48.0
311 13.0 50.0
312 35.0 50.0
313 16.0 46.0
314 43.0 72.0
315 16.0 55.0
316 32.0 72.0
317 16.0 73.0
318 28.0 38.0
319 1.0 84.0
320 28.0 47.0
321 40.0 21.0
322 6.0 28.0
323 9.0 61.0
324 7.0 91.0
325 20.0 39.0
326 30.0 83.0
327 8.0 83.0
328 39.0 61.0
329 43.0 31.0
330 4.0 58.0
331 1.0 34.0
332 13.0 36.0
333 16.0 32.0
334 43.0 58.0
335 4.0 85.0
336 1.0 61.0
337 28.0 24.0
338 26.0 72.0
339 40.0 16.0
340 38.0 83.0
341 7.0 77.0
342 7.0 86.0
343 19.0 60.0
344 31.0 52.0
345 43.0 17.0
346 11.0 83.0
347 13.0 13.0
348 13.0 22.0
349 13.0 31.0
350 43.0 44.0
351 13.0 40.0
352 13.0 49.0
353 16.0 45.0
354 16.0 54.0
355 28.0 19.0
356 17.0 28.0
357 28.0 28.0
358 28.0 37.0
359 40.0 11.0
360 7.0 63.0
361 27.0 50.0
362 19.0 82.0
363 4.0 39.0
364 13.0 17.0
365 24.0 17.0
366 43.0 30.0
367 13.0 26.0
368 1.0 24.0
369 10.0 91.0
370 34.0 58.0
371 4.0 57.0
372 1.0 33.0
373 43.0 39.0
374 16.0 31.0
375 16.0 49.0
376 34.0 85.0
377 22.0 83.0
378 22.0 92.0
379 28.0 23.0
380 7.0 58.0
381 7.0 67.0
382 19.0 50.0
383 30.0 50.0
384 31.0 15.0
385 27.0 72.0
386 19.0 68.0
387 4.0 25.0
388 31.0 51.0
389 41.0 83.0
390 13.0 12.0
391 1.0 10.0
392 25.0 75.0
393 43.0 34.0
394 1.0 28.0
395 16.0 26.0
396 1.0 37.0
397 37.0 58.0
398 28.0 9.0
399 34.0 89.0
400 28.0 18.0
401 7.0 62.0
402 19.0 27.0
403 19.0 36.0
404 7.0 80.0
405 11.0 50.0
406 4.0 11.0
407 4.0 20.0
408 4.0 29.0
409 4.0 38.0
410 4.0 47.0
411 37.0 44.0
412 10.0 90.0
413 16.0 21.0
414 1.0 32.0
415 34.0 66.0
416 16.0 30.0
417 7.0 39.0
418 15.0 61.0
419 19.0 22.0
420 40.0 81.0
421 31.0 32.0
422 4.0 24.0
423 34.0 34.0
424 1.0 18.0
425 22.0 50.0
426 16.0 16.0
427 25.0 83.0
428 37.0 48.0
429 22.0 59.0
430 34.0 61.0
431 37.0 57.0
432 22.0 68.0
433 37.0 66.0
434 19.0 8.0
435 7.0 61.0
436 42.0 28.0
437 19.0 26.0
438 27.0 39.0
439 40.0 76.0
440 21.0 72.0
441 6.0 83.0
442 41.0 50.0
443 10.0 53.0
444 34.0 20.0
445 10.0 62.0
446 25.0 60.0
447 10.0 71.0
448 34.0 38.0
449 37.0 34.0
450 22.0 45.0
451 34.0 47.0
452 34.0 56.0
453 25.0 87.0
454 7.0 29.0
455 19.0 12.0
456 28.0 79.0
457 19.0 21.0
458 11.0 17.0
459 19.0 30.0
460 40.0 62.0
461 40.0 71.0
462 31.0 13.0
463 40.0 89.0
464 10.0 57.0
465 25.0 55.0
466 37.0 20.0
467 10.0 75.0
468 25.0 73.0
469 34.0 51.0
470 22.0 58.0
471 13.0 86.0
472 16.0 82.0
473 15.0 28.0
474 26.0 28.0
475 5.0 72.0
476 40.0 48.0
477 40.0 66.0
478 40.0 75.0
479 25.0 41.0
480 10.0 61.0
481 22.0 26.0
482 34.0 28.0
483 37.0 24.0
484 34.0 37.0
485 37.0 33.0
486 37.0 42.0
487 24.0 72.0
488 16.0 77.0
489 7.0 19.0
490 18.0 28.0
491 40.0 34.0
492 19.0 11.0
493 40.0 43.0
494 6.0 50.0
495 41.0 17.0
496 9.0 83.0
497 40.0 70.0
498 10.0 47.0
499 34.0 14.0
500 4.0 89.0
501 13.0 67.0
502 13.0 76.0
503 1.0 74.0
504 1.0 83.0
505 28.0 64.0
506 28.0 73.0
507 40.0 38.0
508 40.0 47.0
509 34.0 9.0
510 31.0 74.0
511 43.0 57.0
512 13.0 53.0
513 43.0 66.0
514 4.0 84.0
515 43.0 75.0
516 43.0 84.0
517 28.0 32.0
518 13.0 80.0
519 7.0 9.0
520 1.0 78.0
521 13.0 89.0
522 1.0 87.0
523 16.0 85.0
524 17.0 50.0
525 40.0 15.0
526 28.0 59.0
527 28.0 68.0
528 40.0 33.0
529 40.0 42.0
530 19.0 77.0
531 25.0 17.0
532 10.0 28.0
533 10.0 37.0
534 25.0 35.0
535 31.0 69.0
536 24.0 39.0
537 43.0 52.0
538 12.0 83.0
539 4.0 79.0
540 43.0 70.0
541 16.0 62.0
542 13.0 75.0
543 16.0 71.0
544 28.0 36.0
545 16.0 80.0
546 40.0 19.0
547 29.0 28.0
548 30.0 72.0
549 19.0 72.0
550 39.0 50.0
551 31.0 46.0
552 19.0 90.0
553 31.0 55.0
554 43.0 29.0
555 13.0 34.0
556 1.0 50.0
557 36.0 17.0
558 28.0 13.0
559 35.0 61.0
560 1.0 68.0
561 37.0 89.0
562 28.0 31.0
563 28.0 49.0
564 7.0 84.0
565 6.0 39.0
566 19.0 58.0
567 31.0 41.0
568 11.0 72.0
569 10.0 18.0
570 4.0 42.0
571 43.0 24.0
572 31.0 68.0
573 13.0 29.0
574 4.0 60.0
575 1.0 36.0
576 16.0 34.0
577 28.0 8.0
578 1.0 54.0
579 28.0 17.0
580 1.0 63.0
581 36.0 39.0
582 28.0 44.0
583 7.0 70.0
584 15.0 83.0
585 26.0 83.0
586 7.0 88.0
587 19.0 62.0
588 31.0 36.0
589 43.0 10.0
590 19.0 89.0
591 31.0 54.0
592 43.0 19.0
593 16.0 11.0
594 13.0 24.0
595 1.0 22.0
596 43.0 37.0
597 4.0 55.0
598 16.0 29.0
599 13.0 42.0
600 4.0 73.0
601 16.0 38.0
602 34.0 74.0
603 1.0 49.0
604 16.0 47.0
605 28.0 30.0
606 40.0 13.0
607 7.0 74.0
608 19.0 39.0
609 7.0 92.0
610 31.0 22.0
611 31.0 31.0
612 19.0 75.0
613 4.0 23.0
614 41.0 72.0
615 43.0 14.0
616 31.0 58.0
617 13.0 19.0
618 24.0 28.0
619 4.0 59.0
620 34.0 69.0
621 16.0 33.0
622 3.0 72.0
623 38.0 39.0
624 37.0 83.0
625 7.0 69.0
626 19.0 43.0
627 19.0 52.0
628 20.0 17.0
629 31.0 17.0
630 43.0 9.0
631 4.0 36.0
632 1.0 21.0
633 13.0 23.0
634 4.0 54.0
635 34.0 55.0
636 16.0 19.0
637 1.0 30.0
638 22.0 62.0
639 15.0 50.0
640 7.0 46.0
641 7.0 55.0
642 19.0 38.0
643 19.0 47.0
644 31.0 12.0
645 12.0 17.0
646 31.0 30.0
647 4.0 13.0
648 10.0 65.0
649 4.0 31.0
650 43.0 13.0
651 25.0 63.0
652 4.0 40.0
653 16.0 14.0
654 22.0 48.0
655 34.0 50.0
656 25.0 81.0
657 10.0 92.0
658 34.0 59.0
659 22.0 57.0
660 16.0 23.0
661 25.0 90.0
662 37.0 55.0
663 37.0 64.0
664 37.0 73.0
665 7.0 41.0
666 27.0 28.0
667 7.0 59.0
668 19.0 24.0
669 31.0 16.0
670 40.0 83.0
671 25.0 49.0
672 25.0 58.0
673 34.0 36.0
674 14.0 39.0
675 37.0 41.0
676 10.0 87.0
677 37.0 50.0
678 22.0 61.0
679 37.0 59.0
680 7.0 27.0
681 37.0 49.0
682 7.0 36.0
683 36.0 72.0
684 19.0 10.0
685 7.0 54.0
686 40.0 60.0
687 31.0 11.0
688 33.0 39.0
689 21.0 83.0
690 34.0 13.0
691 4.0 21.0
692 37.0 18.0
693 34.0 40.0
694 22.0 38.0
695 10.0 82.0
696 22.0 47.0
697 37.0 54.0
698 22.0 65.0
699 14.0 61.0
700 16.0 89.0
701 28.0 72.0
702 19.0 23.0
703 40.0 55.0
704 40.0 64.0
705 25.0 30.0
706 4.0 16.0
707 34.0 17.0
708 33.0 61.0
709 34.0 26.0
710 10.0 59.0
711 22.0 24.0
712 37.0 22.0
713 10.0 68.0
714 25.0 66.0
715 22.0 42.0
716 43.0 74.0
717 43.0 83.0
718 13.0 79.0
719 7.0 8.0
720 43.0 92.0
START_DEPOT_SECTION
1
2
3
4
5
6
7
8
9
10
11
12
13
14
15
16
17
18
19
20
21
22
23
24
25
26
27
28
29
30
31
32
33
34
35
36
37
38
39
40
41
42
43
44
45
46
47
48
49
50
51
52
53
54
55
56
57
58
59
60
61
62
63
64
65
66
67
68
69
70
71
72
73
74
75
76
77
78
79
80
81
82
83
84
85
86
87
88
89
90
91
92
93
94
95
96
97
98
99
100
101
102
103
104
105
106
107
108
109
110
111
112
113
114
115
116
117
118
119
120
-1
END_DEPOT_SECTION
121
122
123
124
125
126
127
128
129
130
131
132
133
134
135
136
137
138
139
140
141
142
143
144
145
146
147
148
149
150
151
152
153
154
155
156
157
158
159
160
161
162
163
164
165
166
167
168
169
170
171
172
173
174
175
176
177
178
179
180
181
182
183
184
185
186
187
188
189
190
191
192
193
194
195
196
197
198
199
200
201
202
203
204
205
206
207
208
209
210
211
212
213
214
215
216
217
218
219
220
221
222
223
224
225
226
227
228
229
230
231
232
233
234
235
236
237
238
239
240
-1
EOF
